p cnf 50 170
3 2 0
3 2 0
-2 -3 0
-1 3 -4 0
1 -3 -4 0
-1 -3 4 0
1 3 4 0
-5 4 0
-5 4 0
-4 5 0
8 6 0
8 -7 0
-6 7 -8 0
5 -8 -9 0
-5 8 -9 0
5 8 9 0
-5 -8 9 0
-11 2 0
-11 10 0
-2 -10 11 0
12 6 0
12 -11 0
-6 11 -12 0
-9 12 -13 0
9 -12 -13 0
-9 -12 13 0
9 12 13 0
-14 7 0
-14 10 0
-7 -10 14 0
-15 -6 0
-15 14 0
6 -14 15 0
15 14 -16 0
-15 -14 -16 0
15 -14 16 0
-15 14 16 0
-19 17 0
-19 18 0
-17 -18 19 0
20 2 0
20 -19 0
-2 19 -20 0
-21 6 0
-21 -20 0
-6 20 21 0
22 -16 0
22 21 0
16 -21 -22 0
25 -23 0
25 -24 0
23 24 -25 0
26 22 0
26 25 0
-22 -25 -26 0
27 8 0
27 3 0
-8 -3 -27 0
23 -27 -28 0
-23 27 -28 0
23 27 28 0
-23 -27 28 0
29 28 0
29 23 0
-28 -23 -29 0
29 -24 -30 0
-29 24 -30 0
29 24 30 0
-29 -24 30 0
31 -26 0
31 -30 0
26 30 -31 0
7 -23 -32 0
-7 23 -32 0
7 23 32 0
-7 -23 32 0
-33 2 0
-33 17 0
-2 -17 33 0
34 -20 0
34 7 0
20 -7 -34 0
34 2 -35 0
-34 -2 -35 0
34 -2 35 0
-34 2 35 0
-35 -36 0
35 -36 0
37 36 0
37 27 0
-36 -27 -37 0
-38 -33 0
-38 37 0
33 -37 38 0
-28 -6 -39 0
28 6 -39 0
-28 6 39 0
28 -6 39 0
14 10 -41 0
-14 -10 -41 0
14 -10 41 0
-14 10 41 0
-42 40 0
-42 41 0
-40 -41 42 0
39 42 -43 0
-39 -42 -43 0
39 -42 43 0
-39 42 43 0
44 -38 0
44 -43 0
38 43 -44 0
32 -44 -45 0
-32 44 -45 0
32 44 45 0
-32 -44 45 0
46 -7 0
46 3 0
7 -3 -46 0
-46 47 0
46 47 0
48 -45 0
48 -47 0
45 47 -48 0
49 -31 0
49 48 0
31 -48 -49 0
50 13 0
50 -49 0
-13 49 -50 0
-8 48 44 -36 -23 -29 0
-19 9 -38 33 0
-32 38 -29 -16 0
16 37 31 13 0
19 -49 0
21 8 -40 -28 0
19 17 0
-6 47 3 -14 0
16 -21 -46 0
14 -40 2 39 0
42 45 0
28 25 -9 0
-3 -45 -33 24 1 0
-11 12 2 0
-29 3 -9 0
-35 26 -3 -47 -2 0
-5 0
-45 -44 -48 32 -17 0
32 -50 33 -41 0
36 -47 -6 0
-3 32 -43 0
-39 -40 29 19 15 31 0
2 -4 0
-42 19 8 0
-38 40 18 -16 -3 33 0
-36 -43 2 -48 0
49 -34 0
-9 8 -34 0
26 -30 37 5 -47 0
3 -2 33 0
-22 -10 -39 0
20 46 -41 17 0
-49 -39 -34 17 0
38 -11 17 20 0
-8 27 41 -31 -18 0
-12 -3 49 -14 -34 0
5 -1 -16 47 4 0
-12 -26 -25 -50 22 17 0
-23 -9 28 0
50 0
